NAME: PointSet_Angle_25_7
TYPE: TSP
COMMENT: Points chosen discrete uniformly at random out of ${0, \ldots, 500}^2$.
DIMENSION: 25
EDGE_WEIGHT_TYPE: EUC_2D
NODE_COORD_SECTION
1 463 182
2 244 133
3 259 481
4 44 277
5 362 324
6 184 171
7 164 440
8 287 334
9 398 251
10 329 295
11 156 372
12 393 9
13 273 144
14 275 101
15 387 494
16 328 96
17 422 318
18 229 427
19 44 19
20 203 407
21 90 133
22 324 254
23 73 357
24 334 471
25 108 410
EOF
